VACCINE = Vaccine(1..2);
m = 24;
age = [BABY, ANCIENT, YOUTH, YOUTH, CHILD, BABY, AGED, ADULT, SENIOR, SENIOR, AGED, YOUTH, ANCIENT, ADULT, ADULT, ADULT, ANCIENT, SENIOR, CHILD, CHILD, YOUTH, SENIOR, CHILD, ADULT];
gender = [OTHER, MALE, MALE, OTHER, FEMALE, MALE, MALE, OTHER, FEMALE, OTHER, MALE, OTHER, MALE, FEMALE, OTHER, MALE, OTHER, OTHER, OTHER, FEMALE, FEMALE, OTHER, MALE, MALE];
health = [COMPROMISED, GOOD, GOOD, COMPROMISED, COMPROMISED, POOR, GOOD, COMPROMISED, POOR, GOOD, GOOD, COMPROMISED, GOOD, POOR, COMPROMISED, GOOD, COMPROMISED, GOOD, POOR, POOR, COMPROMISED, POOR, COMPROMISED, POOR];
exposure = [AVERAGE, EXTREME, AVERAGE, HIGH, HIGH, AVERAGE, LOW, HIGH, HIGH, HIGH, EXTREME, HIGH, HIGH, AVERAGE, EXTREME, HIGH, EXTREME, LOW, LOW, AVERAGE, HIGH, AVERAGE, LOW, EXTREME];
size = [10, 10, 13, 8, 13, 10, 8, 11, 9, 11, 10, 9, 9, 8, 9, 11, 9, 9, 13, 8, 10, 12, 11, 10];
minsize = 8;
age_group_min = [0, 0, 1, 0, 1, 0, 0];
age_group_max = [13, 21, 11, 8, 18, 15, 15];
max_people_diff = 27;
max_share_vaccines = 2;
health_information = {4, 8, 15};
exposure_information = {2, 9, 19, 21};